Route #1: 5 30 70 29 56 38 58 17
Route #2: 72 69 67 43 21 52 24 1
Route #3: 63 49 65 47 27 2
Route #4: 37 75 57 7 32 76 73
Route #5: 51 22 71 8 15 12 34
Route #6: 46 45 31 3 20 54 62
Route #7: 9 19 50 61 39 13 48 74
Route #8: 28 4 33 55 35 59 36 14 41
Route #9: 6 60 66 68 10 25 18 16 42
Route #10: 53 40 64 11 26 44 23 77
Cost 1287